proyfinal/src/viki/013/andrea/andrea-localstore/experimentInOfficeAgust.take6/worker_8/e18d01c8-85c5-4d07-bf0d-b286a31b7d37.als.cnf.out
Reading from standard input... Use '--help' for help.
============================[ Problem Statistics ]=============================
|                                                                             |
|  Number of variables:         87638                                         |
|  Number of clauses:          161767                                         |
|  Parse time:                   0.04 s                                       |
|                                                                             |
============================[ Search Statistics ]==============================
| Conflicts |          ORIGINAL         |          LEARNT          | Progress |
|           |    Vars  Clauses Literals |    Limit  Clauses Lit/Cl |          |
===============================================================================
|       100 |   62278   104780   261901 |    38419      100     55 | 28.937 % |
|       250 |   62278   104780   261901 |    42261      250     69 | 28.937 % |
|       475 |   62278   104780   261901 |    46487      475    112 | 28.937 % |
|       812 |   62260   104706   261730 |    51136      635     94 | 28.958 % |
|      1318 |   62260   104706   261730 |    56249     1141    100 | 28.958 % |
|      2077 |   62260   104706   261730 |    61874     1900     97 | 28.958 % |
|      3216 |   40615    48228   122768 |    68062     1723     88 | 53.656 % |
===============================================================================
restarts              : 16
conflicts             : 3221           (6861 /sec)
decisions             : 11407          (0.00 % random) (24299 /sec)
propagations          : 4613944        (9828466 /sec)
conflict literals     : 335881         (50.83 % deleted)
Memory used           : 25.08 MB
CPU time              : 0.469447 s

UNSATISFIABLE
